Sm4
1.0
   4.8311192299999997   -0.0002174800000000    0.0000000000000000
   0.0003795900000000    5.0091479000000003    0.0000000000000000
   0.0000000000000000    0.0000000000000000   16.3693500999999983
Sm
4
direct
   0.2640395300000000    0.7496734700000000    0.5270628700000000 Sm
   0.7639140100000000    0.7498283100000001    0.3773222200000000 Sm
   0.2639699700000000    0.2496743800000000    0.3893298100000000 Sm
   0.7639364900000000    0.2497938400000000    0.5389786500000000 Sm
