Ag4
1.0
   4.6951274400000003    0.0172722300000000    0.0000000000000000
  -0.0106452800000000    2.8894661500000001    0.0000000000000000
   0.0000000000000000    0.0000000000000000   18.3412931300000004
Ag
4
direct
   0.2724050100000000    0.7502048400000000    0.6693530100000000 Ag
   0.7727301500000000    0.7490704500000001    0.5713677200000000 Ag
   0.2727763200000000    0.2491117700000000    0.5292871300000001 Ag
   0.7723385200000000    0.2501229300000000    0.7114816100000000 Ag
