Ga26
1.0
  10.0477944000000008   -0.3059308600000000    0.0000000000000000
  -5.0340118900000004    9.0099772500000004    0.0000000000000000
   0.0000000000000000    0.0000000000000000   18.1873006299999993
Ga
26
direct
   0.4060721900000000    0.6431243800000001    0.4307627600000000 Ga
   0.6358839900000000    0.5639882300000000    0.4120009200000000 Ga
   0.1725629600000000    0.7158131300000000    0.4440124000000000 Ga
   0.5570480300000000    0.2505067900000000    0.4168958900000000 Ga
   0.1029342000000000    0.4102498000000000    0.4432566300000000 Ga
   0.3341356100000000    0.3321339200000000    0.4320362700000000 Ga
   0.8691768200000000    0.4858197700000000    0.4228920700000000 Ga
   0.4825545500000000    0.9486550600000000    0.4215497400000000 Ga
   0.7970612500000001    0.1826114600000000    0.4140393900000000 Ga
   0.0271092000000000    0.1052868500000000    0.4383756800000000 Ga
   0.2473390400000000    0.0186481500000000    0.4412413900000000 Ga
   0.7169456900000000    0.8770438800000000    0.4131330200000000 Ga
   0.9402364000000000    0.7935674800000000    0.4246523000000000 Ga
   0.5952705800000000    0.6647028200000000    0.5563287700000000 Ga
   0.6714677600000000    0.4401871600000000    0.5539166300000000 Ga
   0.2876848100000000    0.5870458200000001    0.5833160300000000 Ga
   0.7458631800000000    0.2051530700000000    0.5606577300000000 Ga
   0.3613990100000000    0.3579708400000000    0.5815061400000000 Ga
   0.4439896200000000    0.1340373500000000    0.5692425200000000 Ga
   0.9778918000000000    0.5146696900000000    0.5755369299999999 Ga
   0.5142607500000000    0.8944220800000000    0.5667077600000000 Ga
   0.0486691900000000    0.2770741600000000    0.5836657500000000 Ga
   0.1309645600000000    0.0526013800000000    0.5846057099999999 Ga
   0.2133743400000000    0.8248322500000000    0.5885911400000000 Ga
   0.8191631100000000    0.9701507000000000    0.5634514100000000 Ga
   0.9057314000000000    0.7475237700000000    0.5728592400000000 Ga
