In14 P6
1.0
   8.8197754100000001   -0.0000003900000000    0.0000000000000000
   0.0000055700000000    8.8197750500000005    0.0000000000000000
   0.0000000000000000    0.0000000000000000   19.8134854999999988
In P
14 6
direct
   0.7657171800000000    0.5044029400000000    0.5681229000000000 In
   0.2342827400000000    0.4955971800000000    0.5681228800000000 In
   0.4955977600000000    0.7657171200000000    0.5681230600000000 In
   0.5044022900000000    0.2342829700000000    0.5681230200000000 In
   0.2657171800000000    0.9955975500000001    0.5681230000000000 In
   0.7342828600000000    0.0044025000000000    0.5681230400000000 In
   0.9955973500000000    0.7342829400000001    0.5681228800000000 In
   0.0044025600000000    0.2657172100000000    0.5681229400000000 In
   0.6271838300000000    0.1271801600000000    0.3832454400000000 In
   0.3728177200000000    0.8728184600000000    0.3832454400000000 In
   0.8728169800000000    0.6271797099999999    0.3832456100000000 In
   0.1271819300000000    0.3728191600000000    0.3832455500000000 In
   0.9999994700000000    0.0000009200000000    0.4176138300000000 In
   0.5000002000000000    0.5000009000000000    0.4176138300000000 In
   0.1737444200000000    0.6737443800000000    0.4576974600000000 P
   0.8262555900000000    0.3262557000000000    0.4576974900000000 P
   0.3262558700000000    0.1737440800000000    0.4576971700000000 P
   0.6737441000000000    0.8262559800000000    0.4576971800000000 P
   0.0000000100000000    0.0000000700000000    0.6280086499999999 P
   0.4999999700000000    0.5000000500000000    0.6280086499999999 P
