Ni2 Cl6
1.0
   9.3546907400000006    0.0000004300000000    0.0000000000000000
  -0.0000010500000000    4.1108137600000001    0.0000000000000000
   0.0000000000000000    0.0000000000000000   19.6348205000000000
Ni Cl
2 6
direct
   0.2500002100000000    0.0136201100000000    0.3857222900000000 Ni
   0.7500000900000000    0.6753477200000000    0.6142760900000001 Ni
   0.9703702900000000    0.6775600600000000    0.6179690400000000 Cl
   0.4703703400000000    0.0114257000000000    0.3820345200000000 Cl
   0.0296296200000000    0.0114253500000000    0.3820344600000000 Cl
   0.5296297400000000    0.6775604200000001    0.6179690900000000 Cl
   0.9999988200000000    0.8444837100000000    0.4999973100000000 Cl
   0.5000012300000000    0.8444829800000000    0.4999972100000000 Cl
