Ni2 Cl6
1.0
   6.9924093699999998   -0.0000044000000000    0.0000000000000000
  -0.0000032400000000    5.1454482300000004    0.0000000000000000
   0.0000000000000000    0.0000000000000000   18.6823042599999987
Ni Cl
2 6
direct
   0.0000000000000000    0.3168295600000000    0.5000012500000000 Ni
   0.5000000000000000    0.3168095600000000    0.5000012500000000 Ni
   0.5037124900000000    0.1159479200000000    0.5985451000000001 Cl
   0.0037719000000000    0.5177030100000000    0.4014474900000000 Cl
   0.4962975100000000    0.5177039900000000    0.4014474000000000 Cl
   0.9962381000000000    0.1159461000000000    0.5985550100000000 Cl
   0.2500006700000000    0.5445019000000000    0.5370008100000000 Cl
   0.7500093300000000    0.0891372200000000    0.4630016900000000 Cl
