Si8
1.0
   4.7853644099999997    0.0092869100000000    0.0000000000000000
  -0.0111610300000000    4.7855651300000002    0.0000000000000000
   0.0000000000000000    0.0000000000000000   18.9661169399999991
Si
8
direct
   0.6118776900000000    0.7584696000000000    0.5239509900000000 Si
   0.1118547300000000    0.2585315000000000    0.6042984000000000 Si
   0.1120219500000000    0.7583572300000000    0.4343411300000000 Si
   0.6120018500000000    0.7583599900000000    0.3957021700000000 Si
   0.1120275800000000    0.2583754700000000    0.4760489300000000 Si
   0.6118315200000000    0.2584957700000000    0.5656587800000000 Si
   0.1118543300000000    0.7585591699999999    0.5656677000000000 Si
   0.6120503400000000    0.2583412700000000    0.4343319000000000 Si
