Zn4
1.0
   3.5123932199999999   -0.0001593800000000    0.0000000000000000
   0.0000833000000000    3.6958748400000001    0.0000000000000000
   0.0000000000000000    0.0000000000000000   17.4098329499999984
Zn
4
direct
   0.2768262600000000    0.7495580500000000    0.5678615800000000 Zn
   0.7768056000000000    0.7495568000000000    0.4321373200000000 Zn
   0.2768039300000000    0.2495620000000000    0.4321380200000000 Zn
   0.7768242100000000    0.2495531500000000    0.5678630800000000 Zn
