Ni2 Cl6
1.0
  10.3722873399999997    0.0000000000000000    0.0000000000000000
   0.0000000000000000    3.9680211600000002    0.0000000000000000
   0.0000000000000000    0.0000000000000000   19.0637879000000012
Ni Cl
2 6
direct
   0.0199013500000000    0.1100957000000000    0.5000037100000000 Ni
   0.4800986500000000    0.1100957000000000    0.5000037100000000 Ni
   0.4267725200000000    0.1103928500000000    0.6065075599999999 Cl
   0.0721378800000000    0.1104657000000000    0.3933396400000000 Cl
   0.4278621200000000    0.1104657000000000    0.3933396400000000 Cl
   0.0732174800000000    0.1103928500000000    0.6065075599999999 Cl
   0.9319049000000000    0.6101864299999999    0.5001490900000000 Cl
   0.5681051000000000    0.6101864299999999    0.5001490900000000 Cl
