Er4
1.0
   4.8172886699999999    0.0010741400000000    0.0000000000000000
  -0.0018551700000000    4.8079463400000000    0.0000000000000000
   0.0000000000000000    0.0000000000000000   17.2926368500000009
Er
4
direct
   0.2646280800000000    0.7496374099999999    0.5664315800000000 Er
   0.7646195000000000    0.7498183700000000    0.4338528000000000 Er
   0.2646273600000000    0.2497758200000000    0.4339128100000000 Er
   0.7646250700000000    0.2496884000000000    0.5664026500000000 Er
