In6 Se8
1.0
  13.7063886099999994    0.0212171700000000    0.0000000000000000
  -0.0066262600000000    5.1471103999999999    0.0000000000000000
   0.0000000000000000    0.0000000000000000   17.7719089900000000
In Se
6 8
direct
   0.0539435900000000    0.8151919600000000    0.4274067200000000 In
   0.8696517499999999    0.4579663400000000    0.4888499600000000 In
   0.3695433400000000    0.0420218900000000    0.4888120700000000 In
   0.5538832600000000    0.6848721500000000    0.4272395800000000 In
   0.0811425100000000    0.2475372300000000    0.6372566500000000 In
   0.5812883500000000    0.2521779000000000    0.6374227700000000 In
   0.2520617100000000    0.6635575300000000    0.4356582800000000 Se
   0.7541180500000000    0.1039045000000000    0.5477801200000000 Se
   0.2542599500000000    0.3962123200000000    0.5479800900000000 Se
   0.7520044800000000    0.8361752600000000    0.4355006900000000 Se
   0.4935947700000000   -0.2147657500000000    0.5775126800000000 Se
   0.9935379000000000    0.7151011100000000    0.5776153200000000 Se
  -0.0043347500000000    0.3165325600000000    0.3855610200000000 Se
   0.4953050900000000    0.1835149800000000    0.3854040600000000 Se
