Ni2 Cl6
1.0
   6.2760607799999999    0.0000025000000000    0.0000000000000000
   0.0000025000000000    6.2815944000000004    0.0000000000000000
   0.0000000000000000    0.0000000000000000   20.3778260600000003
Ni Cl
2 6
direct
   0.2499977500000000    0.0098385700000000    0.5281512100000000 Ni
   0.7500020700000000    0.5099837699999999    0.4715688900000000 Ni
   0.2499997000000000    0.0105816400000000    0.6318093700000000 Cl
   0.7500003800000000    0.5109755600000000    0.3679282700000000 Cl
   0.9995341700000000    0.7610287900000000    0.4999842600000000 Cl
   0.5004633700000000    0.7610200000000000    0.4999851000000000 Cl
   0.0002510000000000    0.2612428900000000    0.5002868499999999 Cl
   0.4997515500000000    0.2612339400000000    0.5002860400000000 Cl
