Pt26
1.0
   9.6827462799999999    0.0122105400000000    0.0000000000000000
  -4.8505967500000002    8.3787797600000005    0.0000000000000000
   0.0000000000000000    0.0000000000000000   17.6145164700000016
Pt
26
direct
   0.9971462000000000    0.0554371900000000    0.4270877600000000 Pt
   0.3033300400000000    0.1314844600000000    0.4361680900000000 Pt
   0.6882809800000000    0.9769596100000000    0.4286849000000000 Pt
   0.6118989700000000    0.2084909900000000    0.4347223900000000 Pt
   0.9174980200000000    0.2842488500000000    0.4279834800000000 Pt
   0.2265227700000000    0.3629533700000000    0.4304698600000000 Pt
   0.5345594000000000    0.4384910300000000    0.4258106400000000 Pt
   0.8428767700000001    0.5175031000000000    0.4305084800000000 Pt
   0.4576746600000000    0.6700857300000000    0.4264929600000000 Pt
   0.1507426600000000    0.5926282100000000    0.4280558500000000 Pt
   0.7643183900000000    0.7470594100000000    0.4273681700000000 Pt
   0.3801150600000000    0.9011197200000000    0.4257995100000000 Pt
   0.0720347100000000    0.8226092300000000    0.4318267800000000 Pt
   0.1584689400000000    0.9450158200000000    0.5726191899999999 Pt
   0.3882647800000000    0.8662538900000000    0.5742281500000000 Pt
   0.9256914300000000    0.0206327100000000    0.5729139200000000 Pt
   0.6963070800000000    0.0987006400000000    0.5694540000000000 Pt
   0.2345517300000000    0.2509337500000000    0.5713246100000000 Pt
   0.4651597700000000    0.1747262300000000    0.5735058700000000 Pt
   0.7720380600000000    0.4041670300000000    0.5720165100000000 Pt
   0.0053275200000000    0.3290858600000000    0.5719026100000000 Pt
   0.5427116700000000    0.4833209100000000    0.5740950200000000 Pt
   0.3109195000000000    0.5588629200000000    0.5652667600000000 Pt
   0.8507961100000000    0.7128589700000000    0.5682773100000000 Pt
   0.6195029200000000    0.7904332500000000    0.5638240700000000 Pt
   0.0799518600000000    0.6369171300000001    0.5694193400000001 Pt
