Ag4 F12
1.0
  10.4427979200000003   -3.1047036600000002    0.0000000000000000
  -2.4539601100000001    6.2355099300000001    0.0000000000000000
   0.0000000000000000    0.0000000000000000   17.6195489099999989
Ag F
4 12
direct
   0.2500024700000000    0.0000038300000000    0.5003081000000000 Ag
   0.2500008900000000    0.4999942000000000    0.5001912800000000 Ag
   0.7499976200000000   -0.0000038100000000    0.4996918900000000 Ag
   0.7499991100000000    0.5000057800000000    0.4998087100000000 Ag
   0.2498027300000000    0.7218745200000000    0.5740422900000000 F
   0.2496698400000000    0.7219325200000000    0.4264113700000000 F
   0.2501954900000000    0.2781272400000000    0.5740411399999999 F
   0.2503306200000000    0.2780722800000000    0.4264124400000000 F
   0.7501973600000000    0.2781252900000000    0.4259577500000000 F
   0.7503300800000000    0.2780676400000000    0.5735886700000000 F
   0.7498046100000000    0.7218725499999999    0.4259588200000000 F
   0.7496692300000000    0.7219279000000000    0.5735875000000000 F
   0.9772782200000000    0.2273147000000000    0.4995767700000000 F
   0.5227249800000000    0.7726873600000000    0.4995764500000000 F
   0.0227217200000000    0.7726853200000000    0.5004232700000000 F
   0.4772750600000000    0.2273126800000000    0.5004235100000000 F
