In14 P6
1.0
   8.8172968899999997   -0.0000003900000000    0.0000000000000000
   0.0000055700000000    8.8172965199999993    0.0000000000000000
   0.0000000000000000    0.0000000000000000   19.8496124000000016
In P
14 6
direct
   0.7657390200000000    0.5043876200000000    0.5679955800000001 In
   0.2342609000000000    0.4956125000000000    0.5679955700000000 In
   0.4956130800000000    0.7657389600000000    0.5679957400000000 In
   0.5043869700000000    0.2342611300000000    0.5679957000000000 In
   0.2657390200000000    0.9956128700000000    0.5679956900000001 In
   0.7342610200000000    0.0043871800000000    0.5679957200000000 In
   0.9956126700000000    0.7342611000000000    0.5679955700000000 In
   0.0043872400000000    0.2657390500000000    0.5679956200000000 In
   0.6272061700000000    0.1272025000000000    0.3834635300000000 In
   0.3727953800000000    0.8727961200000000    0.3834635300000000 In
   0.8727946400000000    0.6272020500000000    0.3834636900000000 In
   0.1272042700000000    0.3727968200000000    0.3834636400000000 In
   0.9999994700000000    0.0000009200000000    0.4177447000000000 In
   0.5000002000000000    0.5000009000000000    0.4177447000000000 In
   0.1737636100000000    0.6737635700000000    0.4577841200000000 P
   0.8262364000000000    0.3262365100000000    0.4577841500000000 P
   0.3262366700000000    0.1737632800000000    0.4577838200000000 P
   0.6737633000000000    0.8262367800000000    0.4577838300000000 P
   0.0000000100000000    0.0000000700000000    0.6277775400000000 P
   0.4999999700000000    0.5000000500000000    0.6277775500000000 P
