Mg4
1.0
   5.3242850600000002    0.0007474000000000    0.0000000000000000
  -0.0008860400000000    6.0636508999999998    0.0000000000000000
   0.0000000000000000    0.0000000000000000   15.0057841900000000
Mg
4
direct
   0.2695756400000000    0.6246418600000000    0.4999377000000000 Mg
   0.7695982500000000    0.8746348200000000    0.5000320500000000 Mg
   0.2696215200000000    0.1246747200000000    0.4998510100000000 Mg
   0.7695845900000000    0.3746586100000000    0.5002426100000000 Mg
