Ni2 Cl6
1.0
  10.3803476600000000    0.0000000000000000    0.0000000000000000
   0.0000000000000000    3.9645594800000001    0.0000000000000000
   0.0000000000000000    0.0000000000000000   19.0604165499999993
Ni Cl
2 6
direct
   0.0199726600000000    0.1101047000000000    0.5000059500000000 Ni
   0.4800273400000000    0.1101047000000000    0.5000059500000000 Ni
   0.4267981200000000    0.1103884900000000    0.6065375400000000 Cl
   0.0721015100000000    0.1104787300000000    0.3932999400000000 Cl
   0.4278984900000000    0.1104787300000000    0.3932999400000000 Cl
   0.0731918800000000    0.1103884900000000    0.6065375400000000 Cl
   0.9316578300000000    0.6101687500000000    0.5001565700000000 Cl
   0.5683521700000000    0.6101687500000000    0.5001565700000000 Cl
