In4
1.0
   4.7288222900000001   -0.0154408400000000    0.0000000000000000
   0.0073132600000000    3.9081061400000001    0.0000000000000000
   0.0000000000000000    0.0000000000000000   17.8473646099999996
In
4
direct
   0.2837322100000000    0.7555525100000000    0.5797087200000000 In
   0.7625100400000000    0.7435751500000000    0.4202134800000000 In
   0.2624469500000000    0.2441039800000000    0.4215819500000000 In
   0.7834608000000000    0.2552383600000000    0.5784982300000000 In
