Cr4
1.0
   4.0773758600000001    0.0330318600000000    0.0000000000000000
  -0.0255781000000000    4.0828327199999999    0.0000000000000000
   0.0000000000000000    0.0000000000000000   16.2797937799999985
Cr
4
direct
   0.0011990700000000    0.8692550100000001    0.5291562000000000 Cr
   0.5015977100000000    0.8686723100000000    0.4505467900000000 Cr
   0.0017221200000000    0.3685424800000000    0.4506059600000000 Cr
   0.5013610900000000    0.3694102000000000    0.5291591900000000 Cr
