Mg26
1.0
  11.1823673299999999   -0.1688018800000000    0.0000000000000000
  -5.4448483400000001    9.7680288399999995    0.0000000000000000
   0.0000000000000000    0.0000000000000000   17.7036858700000010
Mg
26
direct
   0.4746037100000000    0.7177107400000000    0.4251500700000000 Mg
   0.5519217600000000    0.4877860400000000    0.4248570800000000 Mg
   0.1670564700000000    0.6404597400000001    0.4242976800000000 Mg
   0.6288548800000000    0.2572872800000000    0.4243120300000000 Mg
   0.2432416800000000    0.4097922600000000    0.4245419300000000 Mg
   0.3208307300000000    0.1797547700000000    0.4249545300000000 Mg
   0.8597622600000000    0.5643626000000000    0.4241408500000000 Mg
   0.3980339400000000    0.9486885100000000    0.4248964600000000 Mg
   0.9357900900000000    0.3333112400000000    0.4238529000000000 Mg
   0.0122425400000000    0.1022212300000000    0.4246623200000000 Mg
   0.0904081300000000    0.8714263799999999    0.4246614600000000 Mg
   0.7050715000000000    0.0258146100000000    0.4248138000000000 Mg
   0.7825524699999999    0.7949172900000000    0.4250471400000000 Mg
   0.6022351700000000    0.6665898300000000    0.5771185599999999 Mg
   0.6787074700000000    0.4355801000000000    0.5762485400000000 Mg
   0.2952908200000000    0.5908884400000000    0.5767527600000000 Mg
   0.7575730100000000    0.2051000100000000    0.5761479100000000 Mg
   0.3711997300000000    0.3595012100000000    0.5764854000000000 Mg
   0.4498707200000000    0.1287687500000000    0.5760902100000000 Mg
   0.9872791200000000    0.5129450800000001    0.5756758199999999 Mg
   0.5269133100000000    0.8979825400000000    0.5770538600000000 Mg
   0.0643103600000000    0.2821177300000000    0.5759100500000000 Mg
   0.1409921600000000    0.0505677500000000    0.5759569200000000 Mg
   0.2189619400000000    0.8212094200000000    0.5762039500000000 Mg
   0.8336481400000000    0.9734711300000000    0.5769212500000001 Mg
   0.9095378600000000    0.7423953500000000    0.5765513600000000 Mg
