Ho8
1.0
   6.3270528600000002   -1.2784557999999999    0.0000000000000000
  -1.3248236099999999    6.3175521899999998    0.0000000000000000
   0.0000000000000000    0.0000000000000000   19.1400835499999999
Ho
8
direct
   0.7369363300000000    0.6334356799999999    0.6080967700000000 Ho
   0.2369368000000000    0.1334313100000000    0.6080996300000000 Ho
   0.9869496200000000    0.8834383300000000    0.4550214900000000 Ho
   0.4869393900000000    0.8834288600000000    0.3920935800000000 Ho
   0.9869358900000000    0.3834406700000000    0.3920986800000000 Ho
   0.7369443800000000    0.1334334600000000    0.5451673800000000 Ho
   0.2369405200000000    0.6334412699999999    0.5451720000000000 Ho
   0.4869370700000000    0.3834404200000000    0.4550275000000000 Ho
