Tl1
1.0
   3.1335721400000001    0.0000000000000000    0.0000000000000000
   0.0000000000000000    3.1334861300000001    0.0000000000000000
   0.0000000000000000    0.0000000000000000   15.0000000000000000
Tl
1
direct
   0.0000000000000000    0.0000000000000000    0.0000000000000000 Tl
