Sn4
1.0
   4.5772546700000003    0.0512471300000000    0.0000000000000000
   0.0539006500000000    4.5753702299999999    0.0000000000000000
   0.0000000000000000    0.0000000000000000   17.3681685399999992
Sn
4
direct
   0.2735369900000000    0.7496195100000000    0.5681838200000000 Sn
   0.7735345300000001    0.7496051700000000    0.4318328800000000 Sn
   0.2735374600000000    0.2496015200000000    0.4318327400000000 Sn
   0.7735410200000000    0.2496237900000000    0.5681825300000000 Sn
