Ni4 Cl8
1.0
   6.1113107800000002    0.0000000000000000    0.0000000000000000
  -0.0000000000000000    6.1071572700000001    0.0000000000000000
   0.0000000000000000    0.0000000000000000   19.2991307100000000
Ni Cl
4 8
direct
   0.2500000000000000    0.9565867600000000    0.5839616900000000 Ni
   0.7500000000000000    0.9565867600000000    0.4160383100000000 Ni
   0.7500000000000000    0.4565867600000000    0.5839616900000000 Ni
   0.2500000000000000    0.4565867600000000    0.4160383100000000 Ni
   0.9999862900000001    0.2065546200000000    0.6113785800000000 Cl
   0.0000137100000000    0.2065546200000000    0.3886214200000000 Cl
   0.5000137099999999    0.2065546200000000    0.6113785800000000 Cl
   0.4999862900000000    0.2065546200000000    0.3886214200000000 Cl
   0.4999862900000000    0.7065546200000000    0.6113785800000000 Cl
   0.5000137099999999    0.7065546200000000    0.3886214200000000 Cl
   0.0000137100000000    0.7065546200000000    0.6113785800000000 Cl
   0.9999862900000001    0.7065546200000000    0.3886214200000000 Cl
