Ir4
1.0
   4.8899016499999997   -0.1182684100000000    0.0000000000000000
  -0.6561598199999999    2.5732191100000001    0.0000000000000000
   0.0000000000000000    0.0000000000000000   17.6157521999999993
Ir
4
direct
   0.0064276100000000    0.6471228100000000    0.4811717300000000 Ir
   0.4202817900000000    0.8529072599999999    0.3723717800000000 Ir
   0.9411642500000000    0.1135907700000000    0.3524735300000000 Ir
   0.4855463500000000    0.3864391600000000    0.5010694700000000 Ir
