Cd4
1.0
   5.8359862299999996    0.0972005600000000    0.0000000000000000
   0.1431287500000000    5.0718249599999998    0.0000000000000000
   0.0000000000000000    0.0000000000000000   15.1068154900000007
Cd
4
direct
   0.8383008100000000    0.7499826500000000    0.5025417400000000 Cd
   0.3383252000000000    0.7500287300000000    0.5026134600000000 Cd
   0.0881473500000000    0.2499875700000000    0.4974167100000000 Cd
   0.5881566400000000    0.2500710500000000    0.4974281000000000 Cd
