Mn2 Te2
1.0
   7.6239969700000003   -0.0000000000000000    0.0000000000000000
   0.0000000000000000    4.6627640399999999    0.0000000000000000
   0.0000000000000000    0.0000000000000000   15.0000000000000000
Te Mn
2 2
direct
   0.7478977200000000    0.4416376200000000    0.5000000000000000 Te
   0.2521022800000000    0.9416376200000000    0.5000000000000000 Te
   0.6003145100000000    0.9416513800000000    0.5000000000000000 Mn
   0.3996854900000000    0.4416513800000000    0.5000000000000000 Mn
