Ir26
1.0
   9.7532415799999992   -0.1599264500000000    0.0000000000000000
  -4.7425458000000003    8.2614181599999998    0.0000000000000000
   0.0000000000000000    0.0000000000000000   18.5503670599999992
Ir
26
direct
   0.4305973200000000    0.6600878600000000    0.4590266600000000 Ir
   0.5802099700000000    0.5001179300000000    0.4673220500000000 Ir
   0.1570825900000000    0.6538132000000000    0.4673570600000000 Ir
   0.5790112100000000    0.2319992500000000    0.4325416600000000 Ir
   0.1613164800000000    0.3963935400000000    0.4262329900000000 Ir
   0.3120817000000000    0.2337306300000000    0.4303107900000000 Ir
   0.8474837400000000    0.4937742900000000    0.4590580000000000 Ir
   0.4240365200000000    0.9220067900000000    0.4326797200000000 Ir
   0.8502050700000000    0.2327773000000000    0.4231565700000000 Ir
   0.0037365200000000    0.0769461700000000    0.4180999100000000 Ir
   0.1553590800000000    0.9202402900000000    0.4303734600000000 Ir
   0.6943610600000000    0.9210001600000000    0.4231928800000000 Ir
   0.8419577800000000    0.7574977800000000    0.4262662900000000 Ir
   0.5851252400000000    0.6578479699999999    0.5842176100000001 Ir
   0.7326824400000000    0.5027228500000001    0.5940106200000000 Ir
   0.3068636200000000    0.6511600800000000    0.5940550400000000 Ir
   0.7268516800000000    0.2363934200000000    0.5518834900000000 Ir
   0.3116158200000000    0.3984888300000000    0.5479229900000000 Ir
   0.4591671200000000    0.2337956900000000    0.5563033700000000 Ir
   0.0041886900000000    0.4959533000000000    0.5841950700000000 Ir
   0.5674333900000000    0.9174376200000000    0.5519275000000000 Ir
   0.9966647500000000    0.2349078000000000    0.5408785300000000 Ir
   0.1476097600000000    0.0769899800000000    0.5537380900000000 Ir
   0.3023849300000000    0.9201872800000001    0.5563802400000000 Ir
   0.8387109100000000    0.9189301000000000    0.5409096900000000 Ir
   0.9901526200000000    0.7554499000000000    0.5479597400000000 Ir
