K26
1.0
  16.5342786400000001   -0.2090728100000000    0.0000000000000000
  -8.0998209600000006   14.4433805300000007    0.0000000000000000
   0.0000000000000000    0.0000000000000000   16.4058001100000013
K
26
direct
   0.4750685900000000    0.7182859800000000    0.3863156700000000 K
   0.5523501800000000    0.4878390900000000    0.3840855400000000 K
   0.1676235400000000    0.6417027400000000    0.3858814300000000 K
   0.6292762100000000    0.2570729800000000    0.3830790400000000 K
   0.2441045900000000    0.4111217100000000    0.3855261700000000 K
   0.3210246500000000    0.1813087900000000    0.3837345900000000 K
   0.8607471500000000    0.5645865700000000    0.3843013200000000 K
   0.3974732000000000    0.9494682400000000    0.3819279000000000 K
   0.9363841200000000    0.3334354400000000    0.3849765400000000 K
   0.0126210700000000    0.1027357700000000    0.3833962100000000 K
   0.0906246300000000    0.8732340800000000    0.3829096600000000 K
   0.7049484300000000    0.0256983300000000    0.3851558200000000 K
   0.7825030700000000    0.7947093500000000    0.3824389800000000 K
   0.6036716300000000    0.6669897200000000    0.6170164200000000 K
   0.6804747200000000    0.4359891300000000    0.6149280000000000 K
   0.2948813400000000    0.5897239900000000    0.6181300900000000 K
   0.7562930600000000    0.2043273600000000    0.6167178700000000 K
   0.3727743600000000    0.3600544600000000    0.6168451700000001 K
   0.4485926800000000    0.1281633900000000    0.6134496699999999 K
  -0.0127334600000000    0.5117226300000000    0.6172456800000000 K
   0.5247591000000000    0.8972773400000000    0.6164611300000000 K
   0.0640183400000000    0.2810990800000000    0.6161054600000000 K
   0.1416319800000000    0.0519313100000000    0.6150842300000000 K
   0.2176105100000000    0.8205074100000000    0.6152484800000000 K
   0.8330328299999999    0.9732292400000000    0.6148478800000000 K
  -0.0887965600000000    0.7439358600000000    0.6141910600000000 K
