Ni2 Cl4
1.0
   6.7938592699999996    0.0000000000000000    0.0000000000000000
   0.0000000000000000    3.1826156000000001    0.0000000000000000
   0.0000000000000000    0.0000000000000000   19.8040041100000010
Ni Cl
2 4
direct
   0.5000000000000000    0.0073953200000000    0.6212350000000000 Ni
   0.5000000000000000    0.5073953200000000    0.3787650000000000 Ni
   0.2812086200000000    0.5071775100000000    0.6212229700000000 Cl
   0.7187914000000000    0.0071771500000000    0.3787770400000000 Cl
   0.2812086300000000    0.0071775100000000    0.3787770300000000 Cl
   0.7187913800000000    0.5071771500000000    0.6212229600000000 Cl
