Cu4
1.0
   2.5342020100000000    0.0067067200000000    0.0000000000000000
  -0.0110686500000000    4.2364268899999997    0.0000000000000000
   0.0000000000000000    0.0000000000000000   17.1741652999999985
Cu
4
direct
   0.2747922900000000    0.7495620300000000    0.5630719800000000 Cu
   0.7747764200000000    0.7496183300000000    0.4367599300000000 Cu
   0.2747890100000000    0.2496178100000000    0.4370922200000000 Cu
   0.7747722800000000    0.2495618300000000    0.5634094600000000 Cu
