Ni2 Cl6
1.0
   4.7616103599999997    0.0000000000000000    0.0000000000000000
   0.0000000000000000    4.7587203599999999    0.0000000000000000
   0.0000000000000000    0.0000000000000000   20.3558998100000004
Ni Cl
2 6
direct
   0.0000000000000000    0.7656943100000000    0.5000000000000000 Ni
   0.5000000000000000    0.2656943100000000    0.5000000000000000 Ni
   0.1881925300000000    0.7647823000000000    0.6315564500000000 Cl
   0.6881925300000000    0.2666063200000000    0.3684435500000000 Cl
   0.8118074700000000    0.7665963200000000    0.3684435500000000 Cl
   0.3118074700000000    0.2647823000000000    0.6315564500000000 Cl
   0.0000000000000000    0.2656943100000000    0.5000000000000000 Cl
   0.5000000000000000    0.7656943100000000    0.5000000000000000 Cl
