In14 P6
1.0
   8.8533499399999993   -0.0000003700000000    0.0000000000000000
   0.0000056100000000    8.8533495799999997    0.0000000000000000
   0.0000000000000000    0.0000000000000000   18.3809239300000016
In P
14 6
direct
   0.7661258800000000    0.5043508100000000    0.5730946500000000 In
   0.2338740400000000    0.4956493100000000    0.5730946300000000 In
   0.4956498900000000    0.7661258200000000    0.5730948200000000 In
   0.5043501600000000    0.2338742700000000    0.5730947800000000 In
   0.2661258800000000    0.9956496800000000    0.5730947600000000 In
   0.7338741600000001    0.0043503700000000    0.5730948000000000 In
   0.9956494800000000    0.7338742400000000    0.5730946300000000 In
   0.0043504300000000    0.2661259100000000    0.5730946900000000 In
   0.6269001500000000    0.1268964800000000    0.3745817400000000 In
   0.3731014000000000    0.8731021400000000    0.3745817400000000 In
   0.8731006600000000    0.6268960300000000    0.3745819200000000 In
   0.1268982500000000    0.3731028400000000    0.3745818600000000 In
   0.9999994700000000    0.0000009200000000    0.4132920600000000 In
   0.5000002000000000    0.5000009000000000    0.4132920600000000 In
   0.1741961600000000    0.6741961200000000    0.4543550000000000 P
   0.8258038500000000    0.3258039600000000    0.4543550300000000 P
   0.3258041300000000    0.1741958200000000    0.4543546800000000 P
   0.6741958400000000    0.8258042400000000    0.4543546900000000 P
   0.0000000100000000    0.0000000700000000    0.6364557000000000 P
   0.4999999700000000    0.5000000500000000    0.6364557100000000 P
