In6 Se8
1.0
  13.7455114100000007    0.0193993100000000    0.0000000000000000
  -0.0070624800000000    4.9966017599999999    0.0000000000000000
   0.0000000000000000    0.0000000000000000   19.6547657099999995
In Se
6 8
direct
   0.0605655500000000    0.8363554800000000    0.4351098600000000 In
   0.8682710800000000    0.4809018800000000    0.4893617500000000 In
   0.3682733700000000    0.0191167200000000    0.4893483200000000 In
   0.5605761300000000    0.6636035100000000    0.4350960900000000 In
   0.0817264700000000    0.2581648300000000    0.6302803000000000 In
   0.5817146800000000    0.2418077400000000    0.6302872700000000 In
   0.2493727600000000    0.6432725500000001    0.4392723100000000 Se
   0.7513491000000000    0.1282293500000000    0.5446658800000000 Se
   0.2513621600000000    0.3717976200000000    0.5446654500000000 Se
   0.7493741900000001    0.8567862000000001    0.4392594400000000 Se
   0.4975908900000000    0.7648682999999999    0.5678539700000000 Se
   0.9975815300000000    0.7351250900000000    0.5678568899999999 Se
   0.9911226500000000    0.3386274900000000    0.3934815200000000 Se
   0.4911194300000000    0.1613432400000000    0.3934609500000000 Se
