O4
1.0
   3.8149285000000002   -0.3916088300000000    0.0000000000000000
  -0.4293327000000000    3.5018345499999999    0.0000000000000000
   0.0000000000000000    0.0000000000000000   17.1652062299999990
O
4
direct
   0.3960918600000000    0.6260718600000000    0.5621715100000000 O
   0.6849751200000000    0.8725936500000000    0.4372111000000000 O
   0.3981883200000000    0.6314694300000000    0.4366976700000000 O
   0.6828947100000000    0.8671850600000000    0.5626850900000000 O
