Ge4
1.0
   3.7340900200000000    0.0001027800000000    0.0000000000000000
   0.0011528300000000    4.3507452000000004    0.0000000000000000
   0.0000000000000000    0.0000000000000000   17.0928354899999988
Ge
4
direct
   0.2774290500000000    0.7139603600000000    0.5614107600000000 Ge
   0.7770635700000000    0.7851313200000000    0.4390133900000000 Ge
   0.2770820900000000    0.2851262600000000    0.4389969100000000 Ge
   0.7774752800000000    0.2139820500000000    0.5614186500000000 Ge
