Ni26
1.0
   8.7197827500000002    0.0501559100000000    0.0000000000000000
  -4.4038376100000001    7.5262717900000000    0.0000000000000000
   0.0000000000000000    0.0000000000000000   17.0259989199999993
Ni
26
direct
   0.0509388900000000    0.0630693900000000    0.4406280800000000 Ni
   0.2817958500000000    0.9863896900000000    0.4405933500000000 Ni
   0.8202923500000000    0.1401787200000000    0.4406426100000000 Ni
   0.5896496300000000    0.2172985500000000    0.4405931500000000 Ni
   0.1280556000000000    0.3708273800000000    0.4406176300000000 Ni
   0.3587984400000000    0.2939995200000000    0.4405527900000000 Ni
   0.6665643600000000    0.5249107800000000    0.4405472500000000 Ni
   0.8974387300000000    0.4479304500000000    0.4406178800000000 Ni
   0.4356583700000000    0.6017009600000000    0.4405299700000000 Ni
   0.2050628700000000    0.6787011800000000    0.4405919000000000 Ni
   0.7432299100000000    0.8324442100000000    0.4406066100000000 Ni
   0.5125589699999999    0.9095569000000000    0.4405954200000000 Ni
   0.9741772700000000    0.7554989300000000    0.4405963300000000 Ni
   0.1023040100000000    0.9349886400000000    0.5594481200000000 Ni
   0.3331145200000000    0.8582960200000000    0.5594312000000000 Ni
   0.8714915300000000    0.0119295500000000    0.5595130300000000 Ni
   0.6408246700000000    0.0890775300000000    0.5594919100000000 Ni
   0.1793163300000000    0.2426509200000000    0.5594456900000000 Ni
   0.4101100800000000    0.1660100400000000    0.5593961500000000 Ni
   0.7179276300000000    0.3968349000000000    0.5594334600000000 Ni
   0.9486395200000000    0.3197186100000000    0.5595244000000000 Ni
   0.4870347700000000    0.4736203600000000    0.5593354100000000 Ni
   0.2563128600000000    0.5504573900000000    0.5593968000000000 Ni
   0.7946380300000000    0.7043258500000000    0.5593971200000000 Ni
   0.5637551500000000    0.7812700200000000    0.5594074999999999 Ni
   0.0256296400000000    0.6274735299999999    0.5594392000000000 Ni
