Ni2 Cl4
1.0
   6.7839975900000002    0.0000000000000000    0.0000000000000000
   0.0000000000000000    3.1788137700000001    0.0000000000000000
   0.0000000000000000    0.0000000000000000   19.8102295099999992
Ni Cl
2 4
direct
   0.5000000000000000    0.0073737700000000    0.6212505900000000 Ni
   0.5000000000000000    0.5073737699999999    0.3787494100000000 Ni
   0.2814202500000000    0.5071882900000000    0.6211841100000000 Cl
   0.7185797700000000    0.0071879300000000    0.3788159000000000 Cl
   0.2814202600000000    0.0071882900000000    0.3788158900000000 Cl
   0.7185797500000000    0.5071879300000000    0.6211841000000000 Cl
