Ni2 Cl6
1.0
   6.2775643099999998    0.0000025000000000    0.0000000000000000
   0.0000025000000000    6.2820263199999999    0.0000000000000000
   0.0000000000000000    0.0000000000000000   20.3751372099999983
Ni Cl
2 6
direct
   0.2499977500000000    0.0103198300000000    0.5281720400000000 Ni
   0.7500020700000000    0.5104490300000000    0.4717650400000000 Ni
   0.2499997000000000    0.0102941600000000    0.6318261100000000 Cl
   0.7500003800000000    0.5111404500000000    0.3681219500000000 Cl
   0.9998394300000000    0.7608982500000000    0.4999954100000000 Cl
   0.5001581100000000    0.7608894600000000    0.4999962600000000 Cl
   0.0001340800000000    0.2609614600000000    0.5000620000000000 Cl
   0.4998684700000000    0.2609525100000000    0.5000611800000000 Cl
