Rb2
1.0
   7.8523061099999998    0.0000000000000000    0.0000000000000000
  -3.9261530499999999    6.8001315699999996    0.0000000000000000
   0.0000000000000000    0.0000000000000000   15.0000000000000000
Rb
2
direct
   0.0000000000000000    0.0000000000000000    0.0000000000000000 Rb
   0.3333333000000000    0.6666666999999999    0.0000000000000000 Rb
