Be4
1.0
   3.5610442700000000    0.0016939600000000    0.0000000000000000
  -0.0010342300000000    2.2684237399999998    0.0000000000000000
   0.0000000000000000    0.0000000000000000   16.8158817200000001
Be
4
direct
   0.2787472200000000    0.7495184000000000    0.5463152900000000 Be
   0.7787877900000000    0.7495016000000000    0.4339858700000000 Be
   0.2787877900000000    0.2495016100000000    0.4339853700000000 Be
   0.7787472000000000    0.2495183900000000    0.5463159600000000 Be
