Ni2 Cl6
1.0
  14.1643448799999998    0.0000001500000000    0.0000000000000000
  -0.0000003100000000    3.5793028400000000    0.0000000000000000
   0.0000000000000000    0.0000000000000000   19.6557760399999992
Ni Cl
2 6
direct
   0.2499999600000000    0.4052103000000000    0.5482258000000000 Ni
   0.7499999500000000    0.1853745700000000    0.4517742200000000 Ni
   0.8762581600000000    0.1817499500000000    0.5088138900000000 Cl
   0.3762581200000000    0.4088350100000000    0.4911861100000000 Cl
   0.1237418100000000    0.4088350400000000    0.4911861000000000 Cl
   0.6237417600000000    0.1817499500000000    0.5088138800000001 Cl
   0.2499999400000000    0.9054353200000000    0.6178493600000000 Cl
   0.7499999800000000    0.6851496500000001    0.3821506500000000 Cl
