Pt2
1.0
   4.2256798900000003   -0.0000000000000000    0.0000000000000000
  -2.1128399400000002    3.6595086399999999    0.0000000000000000
   0.0000000000000000    0.0000000000000000   15.0000000000000000
Pt
2
direct
   0.0000000000000000   -0.0000000000000000    0.0000000000000000 Pt
   0.3333333000000000    0.6666666999999999    0.0000000000000000 Pt
