Cu8
1.0
   4.9855882200000003    0.0238974500000000    0.0000000000000000
  -0.0196597900000000    4.3130078699999999    0.0000000000000000
   0.0000000000000000    0.0000000000000000   17.1370449100000002
Cu
8
direct
   0.6120794899999999    0.6763391700000000    0.5703424200000000 Cu
   0.3620811900000000    0.1762985100000000    0.5703204800000000 Cu
   0.8617710500000000    0.8406055200000000    0.4455832300000000 Cu
   0.3617974500000000    0.8405842800000000    0.4455980200000000 Cu
   0.1118093000000000    0.3405465200000000    0.4455805100000000 Cu
   0.8621076500000000    0.1762610000000000    0.5703413500000000 Cu
   0.1120470500000000    0.6762512100000000    0.5702493900000000 Cu
   0.6118268200000000    0.3406037800000000    0.4456671700000000 Cu
