Ga4
1.0
   4.1774160399999998    0.0273569400000000    0.0000000000000000
   0.0436331200000000    3.3425582000000000    0.0000000000000000
   0.0000000000000000    0.0000000000000000   17.5496002000000004
Ga
4
direct
   0.1637630400000000    0.8319221000000000    0.5686680400000000 Ga
   0.8898705500000000    0.6671924700000000    0.4231212200000000 Ga
   0.3899340900000000    0.1672093700000000    0.4229735300000000 Ga
   0.6636923200000000    0.3319060600000000    0.5688243300000000 Ga
