Mn2 Te2
1.0
   7.5165054600000003    0.0000000000000000    0.0000000000000000
   0.0000000000000000    4.6595749800000004    0.0000000000000000
   0.0000000000000000    0.0000000000000000   15.0000000000000000
Te Mn
2 2
direct
   0.7515311800000000    0.4416376200000000    0.5000000000000000 Te
   0.2484688200000000    0.9416376200000000    0.5000000000000000 Te
   0.6015243700000000    0.9416513800000000    0.5000000000000000 Mn
   0.3984756300000000    0.4416513800000000    0.5000000000000000 Mn
