Zn8
1.0
   4.4461985300000002    0.0065541200000000    0.0000000000000000
  -0.0076164900000000    5.1608257200000001    0.0000000000000000
   0.0000000000000000    0.0000000000000000   17.6751314899999983
Zn
8
direct
   0.6979334000000000    0.7583285300000000    0.5757917200000000 Zn
   0.1979403600000000    0.0085439700000000    0.5760994600000000 Zn
   0.0258910800000000    0.7583677900000000    0.4247951800000000 Zn
   0.5259933200000000    0.0085110100000000    0.4248302800000000 Zn
   0.0258996000000000    0.2583622200000000    0.4247965400000000 Zn
   0.6979328900000000    0.2583202500000000    0.5757898500000000 Zn
   0.1979345700000000    0.5085446000000000    0.5760710100000000 Zn
   0.5259947900000000    0.5085116300000000    0.4248603400000000 Zn
