Al1
1.0
   2.6346462000000002    0.0000000000000000    0.0000000000000000
   0.0000000000000000    2.6346775700000000    0.0000000000000000
   0.0000000000000000    0.0000000000000000   15.0000000000000000
Al
1
direct
   0.0000000000000000    0.0000000000000000    0.0000000000000000 Al
