Os4
1.0
   4.4560754200000003   -0.6709143100000000    0.0000000000000000
  -0.6750561800000000    4.4555214300000001    0.0000000000000000
   0.0000000000000000    0.0000000000000000   16.0708319099999990
Os
4
direct
   0.2727176500000000    0.7496316200000001    0.5333142100000000 Os
   0.7727082700000000    0.7496167800000000    0.4666762900000000 Os
   0.2727285000000000    0.2496368500000000    0.4666762400000000 Os
   0.7727255700000000    0.2496147500000000    0.5333151100000000 Os
