La4 N4
1.0
   6.5684500500000000   -0.0000000000000000    0.0000000000000000
   0.0000000000000000    6.8117397999999998    0.0000000000000000
   0.0000000000000000    0.0000000000000000   16.2953779700000005
N La
4 4
direct
  -0.0000000000000000    0.7792151899999999    0.5000000000000000 N
   0.5000000000000000    0.2792151900000000    0.5000000000000000 N
  -0.0000000000000000    0.2792151900000000    0.5000000000000000 N
   0.5000000000000000    0.7792151899999999    0.5000000000000000 N
   0.7578042300000000    0.0292234200000000    0.5397388000000000 La
   0.2578042300000000    0.0292069600000000    0.4602612000000000 La
   0.2421957700000000    0.5292069600000000    0.4602612000000000 La
   0.7421957700000000    0.5292234200000000    0.5397388000000000 La
