Ti4
1.0
   3.9366311299999999    0.0024490900000000    0.0000000000000000
  -0.0022201700000000    3.9368414700000001    0.0000000000000000
   0.0000000000000000    0.0000000000000000   17.8214109299999990
Ti
4
direct
   0.2672631400000000    0.7496882300000000    0.5522346200000000 Ti
   0.7672768000000000    0.7496967700000000    0.4477653900000000 Ti
   0.2672766800000000    0.2496966300000000    0.4477654700000000 Ti
   0.7672633800000001    0.2496883700000000    0.5522345200000000 Ti
