Mo8
1.0
   5.1356253100000000    0.0138784000000000    0.0000000000000000
  -0.0103952400000000    5.1357004999999996    0.0000000000000000
   0.0000000000000000    0.0000000000000000   17.2864040699999997
Mo
8
direct
   0.6326797100000000    0.6343329500000000    0.5659584100000000 Mo
   0.3416580600000000    0.1346522000000000    0.5661131600000000 Mo
   0.9861913100000000    0.7763137500000000    0.4338471300000000 Mo
   0.4829612000000000    0.9852845400000000    0.4357015700000000 Mo
   0.9872980600000000    0.2763863500000000    0.4339977000000000 Mo
   0.8414484900000000    0.1374605900000000    0.5644359900000000 Mo
   0.1328035400000000    0.6377763800000000    0.5643279800000000 Mo
   0.4904796100000000    0.4852832400000000    0.4355946900000000 Mo
