Ni4 Cl8
1.0
  12.7331900800000000    0.0000000000000000    0.0000000000000000
   0.0000000000000000    5.2926584300000004    0.0000000000000000
   0.0000000000000000    0.0000000000000000   17.5609853099999995
Ni Cl
4 8
direct
   0.0000000000000000    0.9341647000000000    0.5000000300000000 Ni
   0.5000000000000000    0.9341647400000000    0.5000000300000000 Ni
   0.5000000000000000    0.4341649900000000    0.5000000300000000 Ni
   0.0000000000000000    0.4341649800000000    0.5000000300000000 Ni
   0.5992681600000000    0.1841274700000000    0.5729168800000000 Cl
   0.4007320200000000    0.1841272200000000    0.4270831200000000 Cl
   0.9007318000000000    0.1841274300000000    0.5729168500000000 Cl
   0.0992679400000000    0.1841273200000000    0.4270831100000000 Cl
   0.0992682500000000    0.6841279100000000    0.5729168900000000 Cl
   0.9007319800000000    0.6841276600000000    0.4270830800000000 Cl
   0.4007318100000000    0.6841278100000000    0.5729168900000000 Cl
   0.5992680200000000    0.6841277700000000    0.4270830800000000 Cl
