Cs2
1.0
   8.6452673200000003    0.0000000000000000    0.0000000000000000
  -4.3226336600000002    7.4868316899999998    0.0000000000000000
   0.0000000000000000    0.0000000000000000   15.0000000000000000
Cs
2
direct
   0.0000000000000000    0.0000000000000000    0.0000000000000000 Cs
   0.3333333000000000    0.6666666999999999    0.0000000000000000 Cs
