Ni2 Cl6
1.0
  10.4839401999999993    0.0000005200000000    0.0000000000000000
  -0.0000011300000000    4.0383102400000004    0.0000000000000000
   0.0000000000000000    0.0000000000000000   18.8515462400000011
Ni Cl
2 6
direct
   0.2500002100000000    0.0417252000000000    0.3884600600000000 Ni
   0.7500000900000000    0.6472426300000000    0.6115382600000000 Ni
   0.9462920600000000    0.6431067200000000    0.6171190500000000 Cl
   0.4462921100000000    0.0458790400000000    0.3828846600000000 Cl
   0.0537078400000000    0.0458786900000000    0.3828846000000000 Cl
   0.5537079600000000    0.6431070800000001    0.6171191000000000 Cl
   0.9999988200000000    0.8444837100000000    0.4999972000000000 Cl
   0.5000012300000000    0.8444829800000000    0.4999970900000000 Cl
