Ni2 Cl6
1.0
  14.2055705999999997    0.0000001500000000    0.0000000000000000
  -0.0000003100000000    3.5829870700000002    0.0000000000000000
   0.0000000000000000    0.0000000000000000   19.6328409700000002
Ni Cl
2 6
direct
   0.2499999600000000    0.4054024800000000    0.5480602500000000 Ni
   0.7499999500000000    0.1851823900000000    0.4519397700000000 Ni
   0.8760909000000000    0.1813978200000000    0.5087831500000000 Cl
   0.3760908600000000    0.4091871400000000    0.4912168500000000 Cl
   0.1239090700000000    0.4091871700000000    0.4912168300000000 Cl
   0.6239090200000000    0.1813978100000000    0.5087831400000000 Cl
   0.2499999400000000    0.9056992500000000    0.6176822199999999 Cl
   0.7499999800000000    0.6848857200000000    0.3823177900000000 Cl
