Ni4 Cl8
1.0
  12.7996298799999995    0.0000000000000000    0.0000000000000000
   0.0000000000000000    5.2458531900000001    0.0000000000000000
   0.0000000000000000    0.0000000000000000   17.8517211700000011
Ni Cl
4 8
direct
   0.0000000000000000    0.9341647000000000    0.5000000300000000 Ni
   0.5000000000000000    0.9341647400000000    0.5000000300000000 Ni
   0.5000000000000000    0.4341649900000000    0.5000000300000000 Ni
   0.0000000000000000    0.4341649800000000    0.5000000300000000 Ni
   0.5992804100000000    0.1841274700000000    0.5718699300000000 Cl
   0.4007197700000000    0.1841272200000000    0.4281300700000000 Cl
   0.9007195500000000    0.1841274300000000    0.5718699000000000 Cl
   0.0992801900000000    0.1841273200000000    0.4281300600000000 Cl
   0.0992805000000000    0.6841279100000000    0.5718699400000000 Cl
   0.9007197300000001    0.6841276600000000    0.4281300300000000 Cl
   0.4007195600000000    0.6841278100000000    0.5718699400000000 Cl
   0.5992802699999999    0.6841277700000000    0.4281300300000000 Cl
