Ni2 Cl4
1.0
   3.5684326700000000    0.0000000000000000    0.0000000000000000
   0.0000000000000000    6.1986043899999999    0.0000000000000000
   0.0000000000000000    0.0000000000000000   21.1965597800000012
Ni Cl
2 4
direct
   0.5000000000000000    0.4907658800000000    0.5549809900000000 Ni
   0.5000000000000000   -0.0092341100000000    0.4450190200000000 Ni
   0.5000000000000000    0.6348546400000000    0.4590732000000000 Cl
   0.5000000000000000    0.1348546400000000    0.5409267900000000 Cl
   0.0000000000000000    0.5795194700000000    0.6130029400000000 Cl
   0.0000000000000000    0.0795194600000000    0.3869970600000000 Cl
