Cs1
1.0
   5.0530707599999998    0.0000000000000000    0.0000000000000000
   0.0000000000000000    5.0538550500000001    0.0000000000000000
   0.0000000000000000    0.0000000000000000   15.0000000000000000
Cs
1
direct
   0.0000000000000000    0.0000000000000000    0.0000000000000000 Cs
