Ni2 Cl6
1.0
  14.4878678000000001    0.0000001600000000    0.0000000000000000
  -0.0000003100000000    3.5793950300000001    0.0000000000000000
   0.0000000000000000    0.0000000000000000   19.3339391399999982
Ni Cl
2 6
direct
   0.2499999600000000    0.4038286100000000    0.5496596900000000 Ni
   0.7499999500000000    0.1867562600000000    0.4503403200000000 Ni
   0.8735618400000000    0.1854825400000000    0.5081605500000000 Cl
   0.3735618100000000    0.4051024200000000    0.4918394500000000 Cl
   0.1264381300000000    0.4051024500000000    0.4918394300000000 Cl
   0.6264380700000000    0.1854825400000000    0.5081605400000000 Cl
   0.2499999400000000    0.9040249400000000    0.6204042300000000 Cl
   0.7499999800000000    0.6865600300000000    0.3795957800000000 Cl
