Hg4
1.0
   4.8794564800000000    0.0094830000000000    0.0000000000000000
  -0.0065561100000000    4.7979598399999999    0.0000000000000000
   0.0000000000000000    0.0000000000000000   17.4717517700000009
Hg
4
direct
   0.2710426500000000    0.7496581100000000    0.4959977500000000 Hg
   0.7708173900000000    0.7496051000000000    0.3433701800000000 Hg
   0.2708305800000000    0.2496371500000000    0.3431184600000000 Hg
   0.7710293700000000    0.2496296400000000    0.4959678200000000 Hg
