La4 N4
1.0
   6.5691188499999997   -0.0000000000000000    0.0000000000000000
   0.0000000000000000    6.8121966000000000    0.0000000000000000
   0.0000000000000000    0.0000000000000000   16.2960499699999986
N La
4 4
direct
   0.0000000000000000    0.7792151899999999    0.5000000000000000 N
   0.5000000000000000    0.2792151900000000    0.5000000000000000 N
   0.0000000000000000    0.2792151900000000    0.5000000000000000 N
   0.5000000000000000    0.7792151899999999    0.5000000000000000 N
   0.7578036400000000    0.0292234200000000    0.5397451500000000 La
   0.2578036400000000    0.0292069600000000    0.4602548500000000 La
   0.2421963600000000    0.5292069600000000    0.4602548500000000 La
   0.7421963600000000    0.5292234200000000    0.5397451500000000 La
