S1
1.0
   2.3572480800000002    0.0000000000000000    0.0000000000000000
   0.0000000000000000    2.3572137400000002    0.0000000000000000
   0.0000000000000000    0.0000000000000000   15.0000000000000000
S
1
direct
   0.0000000000000000    0.0000000000000000    0.0000000000000000 S
