Ni4
1.0
   4.1928263499999998    0.0111002000000000    0.0000000000000000
  -0.0064661300000000    2.4169626100000001    0.0000000000000000
   0.0000000000000000    0.0000000000000000   17.0240731499999995
Ni
4
direct
   0.1931409100000000    0.7495811800000000    0.5598189099999999 Ni
   0.8596074400000000    0.7495615000000000    0.4409692000000000 Ni
   0.3596241500000000    0.2495542500000000    0.4409805200000000 Ni
   0.6931575000000000    0.2495630700000000    0.5598384000000000 Ni
