Ni4 Cl8
1.0
   7.0724942200000003    0.0000000000000000    0.0000000000000000
   0.0000000000000000    8.8682716199999998    0.0000000000000000
   0.0000000000000000    0.0000000000000000   17.7982532499999984
Ni Cl
4 8
direct
   0.0000000000000000    0.4748580200000000    0.4999999900000000 Ni
   0.5000000000000000    0.4748580200000000    0.4999999900000000 Ni
   0.5000000000000000    0.9748580300000000    0.4999999900000000 Ni
  -0.0000000000000000    0.9748580400000000    0.4999999900000000 Ni
   0.2500000000000000    0.9748892500000000    0.5752845700000000 Cl
   0.7500000700000000    0.9748891200000001    0.4247155600000000 Cl
   0.7500000700000000    0.4748892000000000    0.5752844800000000 Cl
   0.2500000000000000    0.4748891800000000    0.4247154800000000 Cl
   0.0000000000000000    0.7248827700000000    0.4999999900000000 Cl
   0.5000000000000000    0.7248827799999999    0.4999999900000000 Cl
   0.5000000000000000    0.2248827800000000    0.4999999900000000 Cl
   0.0000000000000000    0.2248827700000000    0.4999999900000000 Cl
