Ta1
1.0
   2.5869899799999998    0.0000000000000000    0.0000000000000000
   0.0000000000000000    2.5867593300000000    0.0000000000000000
   0.0000000000000000    0.0000000000000000   15.0000000000000000
Ta
1
direct
   0.0000000000000000    0.0000000000000000    0.0000000000000000 Ta
