Ni4 Cl8
1.0
   6.1106264499999998    0.0000000000000000    0.0000000000000000
   0.0000000000000000    6.1065182499999997    0.0000000000000000
   0.0000000000000000    0.0000000000000000   19.2995661200000015
Ni Cl
4 8
direct
   0.2500000000000000    0.9565867600000000    0.5839827300000000 Ni
   0.7500000000000000    0.9565867600000000    0.4160172700000000 Ni
   0.7500000000000000    0.4565867600000000    0.5839827300000000 Ni
   0.2500000000000000    0.4565867600000000    0.4160172700000000 Ni
   0.9999862900000001    0.2065546200000000    0.6113789500000000 Cl
   0.0000137100000000    0.2065546200000000    0.3886210500000000 Cl
   0.5000137099999999    0.2065546200000000    0.6113789500000000 Cl
   0.4999862900000000    0.2065546200000000    0.3886210500000000 Cl
   0.4999862900000000    0.7065546200000000    0.6113789500000000 Cl
   0.5000137099999999    0.7065546200000000    0.3886210500000000 Cl
   0.0000137100000000    0.7065546200000000    0.6113789500000000 Cl
   0.9999862900000001    0.7065546200000000    0.3886210500000000 Cl
