Ni2 Cl4
1.0
   6.6937713800000003    0.0000000000000000    0.0000000000000000
   0.0000000000000000    3.1788952899999998    0.0000000000000000
   0.0000000000000000    0.0000000000000000   19.8449635999999998
Ni Cl
2 4
direct
   0.5000000000000000    0.0073477300000000    0.6211503800000000 Ni
   0.5000000000000000    0.5073477300000000    0.3788496200000000 Ni
   0.2778939200000000    0.5072013100000000    0.6211952200000000 Cl
   0.7221061000000000    0.0072009500000000    0.3788047900000000 Cl
   0.2778939300000000    0.0072013100000000    0.3788047800000000 Cl
   0.7221060800000000    0.5072009500000000    0.6211952100000000 Cl
