Ni2 Cl6
1.0
   7.0012194100000000    0.0001158900000000    0.0000000000000000
   0.0000850300000000    5.1466396400000001    0.0000000000000000
   0.0000000000000000    0.0000000000000000   18.6824243500000016
Ni Cl
2 6
direct
   0.0000000000000000    0.3168295600000000    0.5000012500000000 Ni
   0.5000000000000000    0.3168095600000000    0.5000012500000000 Ni
   0.5038628500000000    0.1163048700000000    0.5985754800000000 Cl
   0.0038845800000000    0.5173137900000000    0.4014187600000000 Cl
   0.4961471500000000    0.5173470400000000    0.4014170200000000 Cl
   0.9961254200000000    0.1163353300000000    0.5985837400000000 Cl
   0.2500121800000000    0.5442605400000000    0.5368815300000001 Cl
   0.7499978200000000    0.0893785800000000    0.4631209700000000 Cl
