Ni2 Cl4
1.0
   3.6634717200000000    0.0000000000000000    0.0000000000000000
   0.0000000000000000    6.0164341300000004    0.0000000000000000
   0.0000000000000000    0.0000000000000000   19.7905472399999987
Ni Cl
2 4
direct
   0.5000000000000000    0.4920831500000000    0.5583715100000000 Ni
   0.5000000000000000    0.9920831600000000    0.4416284900000000 Ni
   0.5000000000000000    0.6234543299999999    0.4528586400000000 Cl
   0.5000000000000000    0.1234543300000000    0.5471413500000000 Cl
   0.0000000000000000    0.5896025200000000    0.6151439500000000 Cl
   0.0000000000000000    0.0896025100000000    0.3848560500000000 Cl
