K4
1.0
   7.8079612100000002    0.0024209500000000    0.0000000000000000
   0.0028017700000000    9.2155494099999995    0.0000000000000000
   0.0000000000000000    0.0000000000000000   15.3052085000000009
K
4
direct
   0.2635124700000000    0.6244238000000000    0.3968613000000000 K
   0.7638316300000000    0.8749222000000000    0.4069149000000000 K
   0.2636246300000000    0.1244824500000000    0.4168405200000000 K
   0.7635112700000000    0.3751615400000000    0.4162509600000000 K
