Ni2 Cl6
1.0
   6.2759651999999999    0.0000025000000000    0.0000000000000000
   0.0000025000000000    6.2814650900000002    0.0000000000000000
   0.0000000000000000    0.0000000000000000   20.3730085699999997
Ni Cl
2 6
direct
   0.2499977500000000    0.0098787700000000    0.5281263200000000 Ni
   0.7500020700000000    0.5100782400000000    0.4715022800000000 Ni
   0.2499997000000000    0.0105778800000000    0.6318215500000000 Cl
   0.7500003800000000    0.5110291600000000    0.3678533700000000 Cl
   0.9995271999999999    0.7609517800000000    0.5000440300000000 Cl
   0.5004703400000000    0.7609429900000000    0.5000448700000000 Cl
   0.0001970600000000    0.2612276400000000    0.5003041900000000 Cl
   0.4998054900000000    0.2612186900000000    0.5003033800000000 Cl
