La4 N4
1.0
   6.5680120700000000   -0.0000000000000000    0.0000000000000000
   0.0000000000000000    6.8107356399999999    0.0000000000000000
   0.0000000000000000    0.0000000000000000   16.2971643099999994
N La
4 4
direct
   0.0000000000000000    0.7792151899999999    0.5000000000000000 N
   0.5000000000000000    0.2792151900000000    0.5000000000000000 N
   0.0000000000000000    0.2792151900000000    0.5000000000000000 N
   0.5000000000000000    0.7792151899999999    0.5000000000000000 N
   0.7577946700000000    0.0292234200000000    0.5397630500000000 La
   0.2577946700000000    0.0292069600000000    0.4602369500000000 La
   0.2422053300000000    0.5292069600000000    0.4602369500000000 La
   0.7422053300000000    0.5292234200000000    0.5397630500000000 La
