C8
1.0
   4.6822794500000002   -0.9014259999999999    0.0000000000000000
  -0.9923998500000000    4.4650201300000001    0.0000000000000000
   0.0000000000000000    0.0000000000000000   18.8952619000000013
C
8
direct
   0.5832095700000000    0.7629747000000000    0.5900591700000000 C
   0.0832860800000000    0.2628822800000000    0.5900754200000000 C
   0.1406409000000000    0.7538420500000000    0.3839224700000000 C
   0.3905850100000000    0.0039843600000000    0.3838814900000000 C
   0.8906643000000000    0.5039033000000001    0.3839014300000000 C
   0.8332452400000000    0.0130313500000000    0.5900839500000000 C
   0.3332439000000000    0.5130286200000000    0.5900543400000000 C
   0.6406450000000000    0.2538433400000000    0.3838907300000000 C
