C1
1.0
   1.2827094100000000    0.0000000000000000    0.0000000000000000
  -0.0000000000000000    3.5729636000000000    0.0000000000000000
   0.0000000000000000    0.0000000000000000   15.0000000000000000
C
1
direct
  -0.0000000000000000    0.0000000000000000    0.0000000000000000 C
