Mn1
1.0
   2.1485139200000001    0.0000000000000000    0.0000000000000000
  -0.0000000000000000    2.1484470800000000    0.0000000000000000
   0.0000000000000000    0.0000000000000000   15.0000000000000000
Mn
1
direct
   0.0000000000000000    0.0000000000000000    0.0000000000000000 Mn
