Mn2 Te2
1.0
   7.3770883500000002   -0.0000000000000000    0.0000000000000000
  -0.0000000000000000    4.5864335799999996    0.0000000000000000
   0.0000000000000000    0.0000000000000000   15.0000000000000000
Te Mn
2 2
direct
   0.7591973100000000    0.4416376200000000    0.5000000000000000 Te
   0.2408026900000000    0.9416376200000000    0.5000000000000000 Te
   0.6019542100000000    0.9416513800000000    0.5000000000000000 Mn
   0.3980457900000000    0.4416513800000000    0.5000000000000000 Mn
