Ni4 Cl8
1.0
   6.1137150699999996   -0.0000000000000000    0.0000000000000000
  -0.0000000000000000    6.1096063400000000    0.0000000000000000
   0.0000000000000000    0.0000000000000000   19.3281431099999992
Ni Cl
4 8
direct
   0.2500000000000000    0.9565867600000000    0.5838900299999999 Ni
   0.7500000000000000    0.9565867600000000    0.4161099700000000 Ni
   0.7500000000000000    0.4565867600000000    0.5838900299999999 Ni
   0.2500000000000000    0.4565867600000000    0.4161099700000000 Ni
   0.9999862900000001    0.2065546200000000    0.6112255400000000 Cl
   0.0000137100000000    0.2065546200000000    0.3887744600000000 Cl
   0.5000137099999999    0.2065546200000000    0.6112255400000000 Cl
   0.4999862900000000    0.2065546200000000    0.3887744600000000 Cl
   0.4999862900000000    0.7065546200000000    0.6112255400000000 Cl
   0.5000137099999999    0.7065546200000000    0.3887744600000000 Cl
   0.0000137100000000    0.7065546200000000    0.6112255400000000 Cl
   0.9999862900000001    0.7065546200000000    0.3887744600000000 Cl
