Co4
1.0
   4.2208165700000002    0.0245420600000000    0.0000000000000000
  -0.0142011800000000    2.4424865499999999    0.0000000000000000
   0.0000000000000000    0.0000000000000000   16.9459197300000000
Co
4
direct
   0.1888185800000000    0.7496182100000000    0.4425704000000000 Co
   0.8550312600000000    0.7496161300000000    0.5574387900000000 Co
   0.3550327300000000    0.2496188300000000    0.5574391400000001 Co
   0.6888174300000000    0.2496168400000000    0.4425729800000000 Co
