P4
1.0
   3.2985279699999999   -0.0172584100000000    0.0000000000000000
   0.0240230200000000    4.6168520199999996    0.0000000000000000
   0.0000000000000000    0.0000000000000000   17.1046736300000006
P
4
direct
   0.2805831500000000    0.4105905500000000    0.5615604100000000 P
   0.7805860700000000    0.9105824800000000    0.4385227000000000 P
   0.2805737800000000    0.5884064300000000    0.4385186800000000 P
   0.7805670100000000    0.0884105400000000    0.5615653800000000 P
