Cu2
1.0
   3.9586371900000001    0.0000000000000000    0.0000000000000000
  -1.9793186000000000    3.4282477600000001    0.0000000000000000
   0.0000000000000000    0.0000000000000000   15.0000000000000000
Cu
2
direct
   0.0000000000000000    0.0000000000000000    0.0000000000000000 Cu
   0.3333333000000000    0.6666666999999999    0.0000000000000000 Cu
