Ni2 Cl6
1.0
   9.3462249600000007    0.0000004300000000    0.0000000000000000
  -0.0000010400000000    4.1099435000000000    0.0000000000000000
   0.0000000000000000    0.0000000000000000   19.4156825799999986
Ni Cl
2 6
direct
   0.2500002100000000    0.0134776800000000    0.3844557800000000 Ni
   0.7500000900000000    0.6754901500000000    0.6155425900000000 Ni
   0.9702468000000000    0.6774958800000001    0.6193593900000000 Cl
   0.4702468500000000    0.0114898800000000    0.3806442000000000 Cl
   0.0297531000000000    0.0114895300000000    0.3806441400000000 Cl
   0.5297532200000000    0.6774962300000000    0.6193594400000000 Cl
   0.9999988200000000    0.8444837100000000    0.4999972800000000 Cl
   0.5000012300000000    0.8444829800000000    0.4999971800000000 Cl
