Tl8
1.0
   6.6586578400000000    0.0749539000000000    0.0000000000000000
   0.0273247800000000    5.6851225400000001    0.0000000000000000
   0.0000000000000000    0.0000000000000000   19.3547003699999998
Tl
8
direct
   0.6493115600000000    0.5995789300000000    0.6101530300000000 Tl
   0.3922575400000000    0.0845397400000000    0.5778658900000000 Tl
   0.8285318100000000    0.9190651100000000    0.4132170800000000 Tl
   0.3312156400000000    0.9329135600000000    0.4101239200000000 Tl
   0.0749992200000000    0.4173109100000000    0.3769992300000000 Tl
   0.8948818300000000    0.0974414200000000    0.5726145300000000 Tl
   0.1411036600000000    0.5836384500000000    0.5462399400000000 Tl
   0.5832187500000000    0.4330019100000000    0.4408047400000000 Tl
