Se2
1.0
   4.4638748799999997    0.0000000000000000    0.0000000000000000
  -2.2319374399999998    3.8657893600000000    0.0000000000000000
   0.0000000000000000    0.0000000000000000   15.0000000000000000
Se
2
direct
  -0.0000000000000000    0.0000000000000000    0.0000000000000000 Se
   0.3333333000000000    0.6666666999999999    0.0000000000000000 Se
