Pt4
1.0
   3.7355881000000002    0.0032581200000000    0.0000000000000000
  -0.0033265700000000    3.7343658099999999    0.0000000000000000
   0.0000000000000000    0.0000000000000000   17.0977767100000015
Pt
4
direct
   0.2740516700000000    0.7496034200000000    0.5613758599999999 Pt
   0.7740584700000001    0.7496021700000000    0.4386833700000000 Pt
   0.2740556700000000    0.2496016500000000    0.4386832300000000 Pt
   0.7740541900000000    0.2496027600000000    0.5613761800000000 Pt
