Ag4 F12
1.0
  10.4282556300000007   -3.1072282000000002    0.0000000000000000
  -2.4523875700000000    6.2343758400000002    0.0000000000000000
   0.0000000000000000    0.0000000000000000   17.6091827499999987
Ag F
4 12
direct
   0.2500068400000000    0.0000100400000000    0.5003491600000000 Ag
   0.2500003000000000    0.4999907800000000    0.5001870899999999 Ag
   0.7499932499999999   -0.0000100200000000    0.4996508400000000 Ag
   0.7499997000000000    0.5000092000000000    0.4998129100000000 Ag
   0.2498642500000000    0.7220839000000000    0.5740984300000000 F
   0.2498269900000000    0.7222838300000000    0.4263752800000000 F
   0.2501355400000000    0.2779115400000000    0.5740997799999999 F
   0.2501749500000000    0.2777144900000000    0.4263738200000000 F
   0.7501358400000000    0.2779159100000000    0.4259016200000000 F
   0.7501729300000000    0.2777163300000000    0.5736247600000000 F
   0.7498645600000000    0.7220882500000000    0.4259001800000000 F
   0.7498249000000000    0.7222856900000000    0.5736261200000000 F
   0.9776872300000000    0.2277392700000000    0.4995645800000000 F
   0.5223095200000000    0.7722546400000000    0.4995642200000000 F
   0.0223127100000000    0.7722607500000001    0.5004354600000001 F
   0.4776905200000000    0.2277454000000000    0.5004357400000000 F
