Pd30
1.0
   9.7293447499999992   -0.1764263400000000    0.0000000000000000
  -0.1974603100000000    9.7289998400000002    0.0000000000000000
   0.0000000000000000    0.0000000000000000   17.3628648699999992
Pd
30
direct
   0.9767820300000000    0.1877217200000000    0.4320065000000000 Pd
   0.0434368600000000    0.9210834100000000    0.4317199400000000 Pd
   0.1101151500000000    0.6543854500000000    0.4317026200000000 Pd
   0.3767825600000000    0.5877309300000000    0.4317693700000000 Pd
   0.6434732399999999    0.5210407300000000    0.4318090600000000 Pd
   0.8434558800000000    0.7210459500000000    0.4317337200000000 Pd
   0.9101425400000001    0.4543540300000000    0.4319222000000000 Pd
   0.1767818800000000    0.3876986800000000    0.4319639800000000 Pd
   0.2434458600000000    0.1210472800000000    0.4319541100000000 Pd
   0.3101277500000000    0.8543981600000000    0.4317714700000000 Pd
   0.5767939300000000    0.7877172099999999    0.4318596700000000 Pd
   0.7767592600000000    0.9877385000000000    0.4318370500000000 Pd
   0.7101132800000000    0.2543832900000000    0.4318945100000000 Pd
   0.4434337800000000    0.3210428500000000    0.4318415400000000 Pd
   0.5101075300000000    0.0543797600000000    0.4319001000000000 Pd
   0.0876250200000000    0.0768469200000000    0.5676772700000000 Pd
   0.1542802400000000    0.8102163200000000    0.5674271200000000 Pd
   0.2209434700000000    0.5435721700000000    0.5675564200000000 Pd
   0.4876078000000000    0.4768899000000000    0.5675298300000000 Pd
   0.7542817900000000    0.4102056900000000    0.5676445300000000 Pd
   0.9542973300000001    0.6102225700000000    0.5675294900000000 Pd
   0.0209592500000000    0.3435347500000000    0.5677851300000000 Pd
   0.2876305700000000    0.2768739400000000    0.5677082400000000 Pd
   0.3543004200000000    0.0101867400000000    0.5676506000000000 Pd
   0.4209501200000000    0.7435420000000000    0.5675657100000000 Pd
   0.6876419900000000    0.6768666100000000    0.5675676800000000 Pd
   0.8876277000000000    0.8768754000000000    0.5674861500000000 Pd
   0.8209385600000000    0.1435353200000000    0.5676921500000000 Pd
   0.5542764800000000    0.2102183000000000    0.5676277700000000 Pd
   0.6209677100000000    0.9435387400000000    0.5676487900000000 Pd
