Ti8
1.0
   5.5775885000000001    0.0127923000000000    0.0000000000000000
  -0.0131308900000000    5.5776070799999999    0.0000000000000000
   0.0000000000000000    0.0000000000000000   16.8569460100000015
Ti
8
direct
   0.7370558200000000    0.6333185600000000    0.5550809900000000 Ti
   0.2370525700000000    0.1333189600000000    0.5550718800000000 Ti
   0.9868187800000000    0.8835506600000000    0.4449255300000000 Ti
   0.4868320000000000    0.8835536800000000    0.4449255100000000 Ti
   0.9868216700000000    0.3835519100000000    0.4449218900000000 Ti
   0.7370582300000000    0.1333245700000000    0.5550774600000000 Ti
   0.2370474800000000    0.6333152600000000    0.5550743600000000 Ti
   0.4868334500000000    0.3835563900000000    0.4449280400000000 Ti
