Pm4
1.0
   3.6161342599999999   -0.0074594600000000    0.0000000000000000
   0.0130285000000000    6.2532052499999997    0.0000000000000000
   0.0000000000000000    0.0000000000000000   17.7304803900000003
Pm
4
direct
   0.2638407400000000    0.8328346000000000    0.5384779000000000 Pm
   0.7639449100000000    0.6663182800000000    0.3845192600000000 Pm
   0.2639023300000000    0.1666636200000000    0.3847500600000000 Pm
   0.7638720200000000    0.3331634900000000    0.5387171400000000 Pm
