Ag4 F12
1.0
  10.5279498799999995   -3.0698403900000000    0.0000000000000000
  -2.4498331699999998    6.2461376199999998    0.0000000000000000
   0.0000000000000000    0.0000000000000000   17.6604545100000010
Ag F
4 12
direct
   0.2500000300000000    0.9999999899999999    0.5021750699999999 Ag
   0.2500000100000000    0.5000000000000000    0.4989480700000000 Ag
   0.7500000600000000    0.0000000300000000    0.4978249300000000 Ag
   0.7499999899999999    0.4999999800000000    0.5010519300000000 Ag
   0.2491587300000000    0.7206969800000000    0.5725166900000001 F
   0.2513147600000000    0.7246636600000000    0.4258357900000000 F
   0.2508413300000000    0.2793028900000000    0.5725166600000000 F
   0.2486851700000000    0.2753364400000000    0.4258357500000000 F
   0.7508413600000000    0.2793028300000000    0.4274833600000000 F
   0.7486851600000000    0.2753365000000000    0.5741642600000000 F
   0.7491587700000000    0.7206969000000000    0.4274833000000000 F
   0.7513146800000000    0.7246637400000000    0.5741641900000000 F
   0.9742284300000000    0.2201885800000000    0.4985769100000000 F
   0.5257715300000000    0.7798114500000000    0.4985768400000000 F
   0.0257715100000000    0.7798114400000000    0.5014231400000000 F
   0.4742285100000000    0.2201885900000000    0.5014231200000000 F
