Ni2 Cl4
1.0
   3.6576693400000000    0.0000000000000000    0.0000000000000000
   0.0000000000000000    6.0468272199999999    0.0000000000000000
   0.0000000000000000    0.0000000000000000   19.5575235300000010
Ni Cl
2 4
direct
   0.5000000000000000    0.4915363200000000    0.5588718100000000 Ni
   0.5000000000000000    0.9915363300000000    0.4411281900000000 Ni
   0.5000000000000000    0.6245541300000000    0.4524095300000000 Cl
   0.5000000000000000    0.1245541300000000    0.5475904600000000 Cl
   0.0000000000000000    0.5890495500000000    0.6164703800000000 Cl
   0.0000000000000000    0.0890495400000000    0.3835296200000000 Cl
